seed= 2052018 ;
N= 270 ;
M= 3 ;
F= 3 ;
K= 8 ;
T= 84 ;

p=[ 2 2 2 2 2 2 2 2 2 2 2 2 2 2 2 2 2 2 2 2 2 2 2 2 2 2 2 2 2 2 2 2 2 2 2 2 2 2 2 2 2 2 2 2 2 2 2 2 2 2 2 2 2 2 2 2 2 2 2 2 2 2 2 2 2 2 2 2 2 2 2 2 2 2 2 2 2 2 2 2 2 2 2 2 2 2 2 2 2 2 2 2 2 2 2 2 2 2 2 2 2 2 2 2 2 2 2 2 2 2 2 2 2 2 2 2 2 2 2 2 2 2 2 2 2 2 2 2 2 2 2 2 2 2 2 2 2 2 2 2 2 2 2 2 2 2 2 2 2 2 2 2 2 2 2 2 2 2 2 2 2 2 2 2 2 2 2 2 2 2 2 2 2 2 2 2 2 2 2 2 10 10 10 10 10 10 10 10 10 10 10 10 10 10 10 10 10 10 10 10 10 10 10 10 10 10 10 10 10 10 10 10 10 10 10 10 10 10 10 10 10 10 10 10 10 10 10 10 10 10 10 10 10 10 10 10 10 10 10 10 10 10 10 10 10 10 10 10 10 10 10 10 10 10 10 10 10 10 10 10 10 10 10 10 10 10 10 10 10 10 ];
r=[ 0 0 0 0 0 0 0 0 0 0 0 0 0 0 0 0 0 0 0 0 0 0 0 0 0 0 0 0 0 0 0 0 0 0 0 0 0 0 0 0 0 0 0 0 0 0 0 0 0 0 0 0 0 0 0 0 0 0 0 0 0 0 0 0 0 0 0 0 0 0 0 0 0 0 0 0 0 0 0 0 0 0 0 0 0 0 0 0 0 0 0 0 0 0 0 0 0 0 0 0 0 0 0 0 0 0 0 0 0 0 0 0 0 0 0 0 0 0 0 0 0 0 0 0 0 0 0 0 0 0 0 0 0 0 0 0 0 0 0 0 0 0 0 0 0 0 0 0 0 0 0 0 0 0 0 0 0 0 0 0 0 0 0 0 0 0 0 0 0 0 0 0 0 0 0 0 0 0 0 0 0 0 0 0 0 0 0 0 0 0 0 0 0 0 0 0 0 0 0 0 0 0 0 0 0 0 0 0 0 0 0 0 0 0 0 0 0 0 0 0 0 0 0 0 0 0 0 0 0 0 0 0 0 0 0 0 0 0 0 0 0 0 0 0 0 0 0 0 0 0 0 0 0 0 0 0 0 0 0 0 0 0 0 0 0 0 0 0 0 0 ];
d=[ 2 7 15 50 53 59 17 54 30 78 4 18 23 41 49 57 41 8 52 72 23 11 7 13 29 59 35 47 68 44 1 30 18 58 70 76 76 21 18 52 70 66 69 65 8 71 51 36 66 30 4 66 54 39 56 40 73 28 49 4 55 2 42 9 1 69 1 54 49 9 47 5 19 40 44 65 8 44 56 31 2 70 68 53 21 30 68 50 59 37 28 14 57 41 15 75 1 0 67 53 58 9 39 55 72 44 2 13 55 47 23 76 14 2 42 14 69 43 34 7 45 10 73 28 28 47 76 66 18 21 67 29 38 11 43 63 43 30 0 29 34 41 50 3 50 3 76 57 27 8 73 44 14 17 59 4 59 54 15 41 5 45 58 42 15 17 13 42 49 26 48 45 57 33 78 22 8 73 46 26 73 0 19 61 73 77 17 8 43 28 32 29 42 66 57 13 78 16 73 27 78 47 29 7 44 62 46 43 54 72 59 27 36 1 71 0 14 24 16 39 52 19 31 12 21 15 27 62 35 56 66 64 9 24 50 23 10 24 54 21 40 33 34 44 75 36 45 16 25 36 40 41 77 54 54 1 3 28 35 7 21 65 55 59 6 5 38 38 15 70 ];
s=[ 1 1 1 1 1 1 1 1 1 1 1 1 1 1 1 1 1 1 1 1 1 1 1 1 1 1 1 1 1 1 1 1 1 1 1 1 1 1 1 1 1 1 1 1 1 1 1 1 1 1 1 1 1 1 1 1 1 1 1 1 1 1 1 1 1 1 1 1 1 1 1 1 1 1 1 1 1 1 1 1 1 1 1 1 1 1 1 1 1 1 1 1 1 1 1 1 1 1 1 1 1 1 1 1 1 1 1 1 1 1 1 1 1 1 1 1 1 1 1 1 1 1 1 1 1 1 1 1 1 1 1 1 1 1 1 1 1 1 1 1 1 1 1 1 1 1 1 1 1 1 1 1 1 1 1 1 1 1 1 1 1 1 1 1 1 1 1 1 1 1 1 1 1 1 1 1 1 1 1 1 1 1 1 1 1 1 1 1 1 1 1 1 1 1 1 1 1 1 1 1 1 1 1 1 1 1 1 1 1 1 1 1 1 1 1 1 1 1 1 1 1 1 1 1 1 1 1 1 1 1 1 1 1 1 1 1 1 1 1 1 1 1 1 1 1 1 1 1 1 1 1 1 1 1 1 1 1 1 1 1 1 1 1 1 1 1 1 1 1 1 ];
w=[ 2 2 1 3 4 1 5 5 5 5 2 1 1 4 4 1 4 3 5 4 4 2 1 5 2 5 3 1 1 1 3 5 1 1 3 4 4 4 1 1 1 2 1 2 3 3 3 4 5 5 4 4 3 5 2 2 1 5 2 3 5 4 3 4 3 3 1 1 3 3 3 2 3 4 4 1 1 2 3 1 5 1 5 3 5 1 1 3 4 2 3 3 4 5 5 4 3 3 3 3 4 5 3 1 3 2 3 1 5 3 3 2 5 4 3 1 3 5 1 5 2 3 2 5 3 5 1 3 5 4 2 5 3 2 5 4 3 5 2 1 2 1 3 3 2 1 3 4 5 2 2 1 1 4 1 1 2 5 2 4 5 4 2 5 5 3 1 2 2 1 3 2 5 1 1 3 3 3 3 2 2 4 4 1 4 3 3 2 4 5 2 1 3 3 5 3 4 5 3 5 5 3 1 3 2 3 1 2 1 2 2 3 4 4 2 2 4 2 3 1 1 5 2 1 4 1 4 1 3 5 3 3 5 5 1 3 3 3 5 3 2 4 5 2 1 4 3 5 2 3 1 3 1 3 3 4 4 5 2 4 4 5 3 3 1 4 2 5 1 5 ];
f=[ 1 1 1 1 1 1 1 1 1 1 1 1 1 1 1 1 1 1 1 1 1 1 1 1 1 1 1 1 1 1 1 1 1 1 1 1 1 1 1 1 1 1 1 1 1 1 1 1 1 1 1 1 1 1 1 1 1 1 1 1 1 1 1 1 1 1 1 1 1 1 1 1 1 1 1 1 1 1 1 1 1 1 1 1 1 1 1 1 1 1 2 2 2 2 2 2 2 2 2 2 2 2 2 2 2 2 2 2 2 2 2 2 2 2 2 2 2 2 2 2 2 2 2 2 2 2 2 2 2 2 2 2 2 2 2 2 2 2 2 2 2 2 2 2 2 2 2 2 2 2 2 2 2 2 2 2 2 2 2 2 2 2 2 2 2 2 2 2 2 2 2 2 2 2 2 2 2 2 2 2 3 3 3 3 3 3 3 3 3 3 3 3 3 3 3 3 3 3 3 3 3 3 3 3 3 3 3 3 3 3 3 3 3 3 3 3 3 3 3 3 3 3 3 3 3 3 3 3 3 3 3 3 3 3 3 3 3 3 3 3 3 3 3 3 3 3 3 3 3 3 3 3 3 3 3 3 3 3 3 3 3 3 3 3 3 3 3 3 3 3 ];

e1=[ 10 10 10 10 10 10 10 10 10 10 10 10 10 10 10 10 10 10 10 10 10 10 10 10 10 10 10 10 10 10 10 10 10 10 10 10 10 10 10 10 10 10 8 8 8 8 8 8 8 8 8 8 8 8 8 8 8 8 8 8 8 8 8 8 8 8 8 8 8 8 8 8 8 8 8 8 8 8 8 8 8 8 8 8 ];
e2=[ 10 10 10 10 10 10 10 10 10 10 10 10 10 10 10 10 10 10 10 10 10 10 10 10 10 10 10 10 9 9 9 9 9 9 9 9 9 9 9 9 9 9 8 8 8 8 8 8 8 8 8 8 8 8 8 8 8 8 8 8 8 8 8 8 8 8 8 8 8 8 9 9 9 9 9 9 9 9 9 9 9 9 9 9 ];